; DUP1 MLOAD XOR XOR POP => POP POP
(set-option :produce-proofs true)
; 
(set-info :status unknown)
(declare-fun storage_t ((_ BitVec 256) (_ BitVec 256) (_ BitVec 256) Int (_ BitVec 256)) (_ BitVec 256))
(declare-fun storage_s ((_ BitVec 256) (_ BitVec 256) (_ BitVec 256) Int (_ BitVec 256)) (_ BitVec 256))
(declare-fun exc_halt_t (Int) Bool)
(declare-fun exc_halt_s (Int) Bool)
(declare-fun sc_t (Int) (_ BitVec 6))
(declare-fun stack_t ((_ BitVec 256) (_ BitVec 256) (_ BitVec 256) Int (_ BitVec 6)) (_ BitVec 256))
(declare-fun stack_s ((_ BitVec 256) (_ BitVec 256) (_ BitVec 256) Int (_ BitVec 6)) (_ BitVec 256))
(declare-fun sc_s (Int) (_ BitVec 6))
(declare-fun used_gas_t ((_ BitVec 256) (_ BitVec 256) (_ BitVec 256) Int) Int)
(declare-fun used_gas_s ((_ BitVec 256) (_ BitVec 256) (_ BitVec 256) Int) Int)
(declare-fun f_MLOAD ((_ BitVec 256) (_ BitVec 256) (_ BitVec 256) (_ BitVec 256)) (_ BitVec 256))
(assert
 (exists ((x_0 (_ BitVec 256)) (x_1 (_ BitVec 256)) (x_MLOAD_0 (_ BitVec 256)) )(let (($x6788 (forall ((w (_ BitVec 256)) )(let ((?x7006 (storage_t x_0 x_1 x_MLOAD_0 2 w)))
 (let ((?x6786 (storage_s x_0 x_1 x_MLOAD_0 5 w)))
 (= ?x6786 ?x7006))))
 ))
 (let (($x903 (exc_halt_t 2)))
 (let (($x3979 (exc_halt_s 5)))
 (let (($x7408 (= $x3979 $x903)))
 (let (($x6501 (forall ((n (_ BitVec 6)) )(let ((?x4056 (sc_t 2)))
 (let (($x9398 (bvsle ?x4056 n)))
 (let ((?x6960 (stack_t x_0 x_1 x_MLOAD_0 2 n)))
 (let ((?x6947 (stack_s x_0 x_1 x_MLOAD_0 5 n)))
 (let (($x6925 (= ?x6947 ?x6960)))
 (or $x6925 $x9398)))))))
 ))
 (let ((?x4056 (sc_t 2)))
 (let ((?x805 (sc_s 5)))
 (let (($x7380 (= ?x805 ?x4056)))
 (let ((?x6844 (used_gas_t x_0 x_1 x_MLOAD_0 0)))
 (let ((?x6779 (used_gas_s x_0 x_1 x_MLOAD_0 0)))
 (let (($x6800 (= ?x6779 ?x6844)))
 (let (($x7008 (forall ((w (_ BitVec 256)) )(let ((?x6949 (storage_t x_0 x_1 x_MLOAD_0 0 w)))
 (let ((?x6889 (storage_s x_0 x_1 x_MLOAD_0 0 w)))
 (= ?x6889 ?x6949))))
 ))
 (let (($x56 (exc_halt_t 0)))
 (let (($x57 (exc_halt_s 0)))
 (let (($x58 (= $x57 $x56)))
 (let (($x6937 (forall ((n (_ BitVec 6)) )(let ((?x7296 (stack_t x_0 x_1 x_MLOAD_0 0 n)))
 (let ((?x7295 (stack_s x_0 x_1 x_MLOAD_0 0 n)))
 (let (($x7297 (= ?x7295 ?x7296)))
 (let ((?x63 (sc_t 0)))
 (let (($x3168 (bvsle ?x63 n)))
 (or $x3168 $x7297)))))))
 ))
 (let ((?x63 (sc_t 0)))
 (let ((?x72 (sc_s 0)))
 (let (($x73 (= ?x72 ?x63)))
 (let (($x7383 (= $x903 (or (exc_halt_t 1) (not (bvsle (_ bv0 6) (bvadd (_ bv63 6) (sc_t 1))))))))
 (let (($x6928 (forall ((w (_ BitVec 256)) )(let ((?x7265 (storage_t x_0 x_1 x_MLOAD_0 1 w)))
 (let ((?x7006 (storage_t x_0 x_1 x_MLOAD_0 2 w)))
 (= ?x7006 ?x7265))))
 ))
 (let (($x6934 (forall ((n (_ BitVec 6)) )(let ((?x4023 (sc_t 1)))
 (let ((?x8568 (bvadd (_ bv63 6) ?x4023)))
 (let (($x7393 (bvsle ?x8568 n)))
 (let ((?x7258 (stack_t x_0 x_1 x_MLOAD_0 1 n)))
 (let ((?x6960 (stack_t x_0 x_1 x_MLOAD_0 2 n)))
 (or (= ?x6960 ?x7258) $x7393)))))))
 ))
 (let ((?x4023 (sc_t 1)))
 (let ((?x8568 (bvadd (_ bv63 6) ?x4023)))
 (let (($x7544 (= ?x4056 ?x8568)))
 (let (($x6927 (= (used_gas_t x_0 x_1 x_MLOAD_0 2) (+ 2 (used_gas_t x_0 x_1 x_MLOAD_0 1)))))
 (let (($x1920 (exc_halt_t 1)))
 (let (($x7803 (= $x1920 (or $x56 (not (bvsle (_ bv0 6) (bvadd (_ bv63 6) ?x63)))))))
 (let (($x6917 (forall ((w (_ BitVec 256)) )(let ((?x6949 (storage_t x_0 x_1 x_MLOAD_0 0 w)))
 (let ((?x7265 (storage_t x_0 x_1 x_MLOAD_0 1 w)))
 (= ?x7265 ?x6949))))
 ))
 (let (($x6922 (forall ((n (_ BitVec 6)) )(let ((?x63 (sc_t 0)))
 (let ((?x8804 (bvadd (_ bv63 6) ?x63)))
 (let (($x7696 (bvsle ?x8804 n)))
 (let ((?x7296 (stack_t x_0 x_1 x_MLOAD_0 0 n)))
 (let ((?x7258 (stack_t x_0 x_1 x_MLOAD_0 1 n)))
 (or (= ?x7258 ?x7296) $x7696)))))))
 ))
 (let ((?x8804 (bvadd (_ bv63 6) ?x63)))
 (let (($x7401 (= ?x4023 ?x8804)))
 (let (($x6915 (= $x3979 (or (exc_halt_s 4) (not (bvsle (_ bv0 6) (bvadd (_ bv63 6) (sc_s 4))))))))
 (let (($x6911 (forall ((w (_ BitVec 256)) )(let ((?x7178 (storage_s x_0 x_1 x_MLOAD_0 4 w)))
 (let ((?x6786 (storage_s x_0 x_1 x_MLOAD_0 5 w)))
 (= ?x6786 ?x7178))))
 ))
 (let (($x6542 (forall ((n (_ BitVec 6)) )(let ((?x7171 (stack_s x_0 x_1 x_MLOAD_0 4 n)))
 (let ((?x6947 (stack_s x_0 x_1 x_MLOAD_0 5 n)))
 (or (bvsle (bvadd (_ bv63 6) (sc_s 4)) n) (= ?x6947 ?x7171)))))
 ))
 (let ((?x4305 (sc_s 4)))
 (let ((?x8764 (bvadd (_ bv63 6) ?x4305)))
 (let (($x7425 (= ?x805 ?x8764)))
 (let (($x6903 (= (used_gas_s x_0 x_1 x_MLOAD_0 5) (+ 2 (used_gas_s x_0 x_1 x_MLOAD_0 4)))))
 (let (($x64 (exc_halt_s 4)))
 (let (($x5482 (= $x64 (or (exc_halt_s 3) (not (bvsle (_ bv0 6) (bvadd (_ bv62 6) (sc_s 3))))))))
 (let (($x6564 (forall ((w (_ BitVec 256)) )(let ((?x354 (storage_s x_0 x_1 x_MLOAD_0 3 w)))
 (let ((?x7178 (storage_s x_0 x_1 x_MLOAD_0 4 w)))
 (= ?x7178 ?x354))))
 ))
 (let (($x6902 (forall ((n (_ BitVec 6)) )(let ((?x275 (sc_s 3)))
 (let ((?x8073 (bvadd (_ bv62 6) ?x275)))
 (let (($x8082 (bvsle ?x8073 n)))
 (let ((?x7104 (stack_s x_0 x_1 x_MLOAD_0 3 n)))
 (let ((?x7171 (stack_s x_0 x_1 x_MLOAD_0 4 n)))
 (or (= ?x7171 ?x7104) $x8082)))))))
 ))
 (let ((?x275 (sc_s 3)))
 (let ((?x8728 (bvadd (_ bv63 6) ?x275)))
 (let (($x7450 (= ?x4305 ?x8728)))
 (let ((?x7148 (used_gas_s x_0 x_1 x_MLOAD_0 4)))
 (let ((?x6871 (stack_s x_0 x_1 x_MLOAD_0 3 ?x8728)))
 (let (($x6896 (= (stack_s x_0 x_1 x_MLOAD_0 4 ?x8764) (bvxor ?x6871 (stack_s x_0 x_1 x_MLOAD_0 3 (bvadd (_ bv62 6) ?x275))))))
 (let (($x292 (exc_halt_s 3)))
 (let (($x6892 (= $x292 (or (exc_halt_s 2) (not (bvsle (_ bv0 6) (bvadd (_ bv62 6) (sc_s 2))))))))
 (let (($x6884 (forall ((w (_ BitVec 256)) )(let ((?x6849 (storage_s x_0 x_1 x_MLOAD_0 2 w)))
 (let ((?x354 (storage_s x_0 x_1 x_MLOAD_0 3 w)))
 (= ?x354 ?x6849))))
 ))
 (let (($x6880 (forall ((n (_ BitVec 6)) )(let ((?x7028 (stack_s x_0 x_1 x_MLOAD_0 2 n)))
 (let ((?x7104 (stack_s x_0 x_1 x_MLOAD_0 3 n)))
 (or (bvsle (bvadd (_ bv62 6) (sc_s 2)) n) (= ?x7104 ?x7028)))))
 ))
 (let ((?x218 (sc_s 2)))
 (let ((?x9500 (bvadd (_ bv63 6) ?x218)))
 (let (($x8760 (= ?x275 ?x9500)))
 (let ((?x7073 (used_gas_s x_0 x_1 x_MLOAD_0 3)))
 (let ((?x6860 (stack_s x_0 x_1 x_MLOAD_0 2 ?x9500)))
 (let (($x6877 (= ?x6871 (bvxor ?x6860 (stack_s x_0 x_1 x_MLOAD_0 2 (bvadd (_ bv62 6) ?x218))))))
 (let (($x247 (exc_halt_s 2)))
 (let (($x6023 (= $x247 (or (exc_halt_s 1) (not (bvsle (_ bv0 6) (bvadd (_ bv63 6) (sc_s 1))))))))
 (let (($x6868 (forall ((w (_ BitVec 256)) )(let ((?x6755 (storage_s x_0 x_1 x_MLOAD_0 1 w)))
 (let ((?x6849 (storage_s x_0 x_1 x_MLOAD_0 2 w)))
 (= ?x6849 ?x6755))))
 ))
 (let (($x6866 (forall ((n (_ BitVec 6)) )(let ((?x154 (sc_s 1)))
 (let ((?x9701 (bvadd (_ bv63 6) ?x154)))
 (let (($x9489 (bvsle ?x9701 n)))
 (let ((?x6781 (stack_s x_0 x_1 x_MLOAD_0 1 n)))
 (let ((?x7028 (stack_s x_0 x_1 x_MLOAD_0 2 n)))
 (or (= ?x7028 ?x6781) $x9489)))))))
 ))
 (let ((?x154 (sc_s 1)))
 (let (($x9488 (= ?x218 ?x154)))
 (let ((?x6978 (used_gas_s x_0 x_1 x_MLOAD_0 2)))
 (let ((?x9701 (bvadd (_ bv63 6) ?x154)))
 (let ((?x6851 (stack_s x_0 x_1 x_MLOAD_0 1 ?x9701)))
 (let (($x9503 (not (= ((_ extract 6 6) (bvadd (_ bv1 7) (concat (_ bv0 1) ?x72))) (_ bv0 1)))))
 (let (($x8005 (not (bvsle (_ bv0 6) (bvadd (_ bv63 6) ?x72)))))
 (let (($x189 (exc_halt_s 1)))
 (let (($x8019 (= $x189 (or $x57 $x8005 $x9503))))
 (let (($x6861 (forall ((w (_ BitVec 256)) )(let ((?x6889 (storage_s x_0 x_1 x_MLOAD_0 0 w)))
 (let ((?x6755 (storage_s x_0 x_1 x_MLOAD_0 1 w)))
 (= ?x6755 ?x6889))))
 ))
 (let (($x6609 (forall ((n (_ BitVec 6)) )(let ((?x72 (sc_s 0)))
 (let ((?x7981 (bvadd (_ bv63 6) ?x72)))
 (let (($x7998 (bvsle ?x7981 n)))
 (let ((?x7295 (stack_s x_0 x_1 x_MLOAD_0 0 n)))
 (let ((?x6781 (stack_s x_0 x_1 x_MLOAD_0 1 n)))
 (or (= ?x6781 ?x7295) $x7998)))))))
 ))
 (let (($x8922 (= ?x154 (bvadd (_ bv1 6) ?x72))))
 (let ((?x7981 (bvadd (_ bv63 6) ?x72)))
 (let ((?x6854 (stack_s x_0 x_1 x_MLOAD_0 0 ?x7981)))
 (let (($x6850 (forall ((w0 (_ BitVec 256)) )(let ((?x6847 (ite (= (stack_s x_0 x_1 x_MLOAD_0 1 (bvadd (_ bv63 6) (sc_s 1))) w0) x_MLOAD_0 (_ bv0 256))))
 (let ((?x6821 (f_MLOAD x_0 x_1 x_MLOAD_0 w0)))
 (= ?x6821 ?x6847))))
 ))
 (let (($x6825 (forall ((w (_ BitVec 256)) )(let ((?x6889 (storage_s x_0 x_1 x_MLOAD_0 0 w)))
 (= ?x6889 (_ bv0 256))))
 ))
 (let (($x6662 (= ?x6779 0)))
 (let (($x5037 (not $x57)))
 (let (($x3626 (= (stack_s x_0 x_1 x_MLOAD_0 0 (_ bv1 6)) x_1)))
 (let (($x6828 (= (stack_s x_0 x_1 x_MLOAD_0 0 (_ bv0 6)) x_0)))
 (let (($x8956 (= ?x72 (_ bv2 6))))
 (and $x8956 $x6828 $x3626 $x5037 $x6662 $x6825 $x6850 (= ?x6851 ?x6854) (= (stack_s x_0 x_1 x_MLOAD_0 1 ?x7981) ?x6854) (= (used_gas_s x_0 x_1 x_MLOAD_0 1) (+ 3 ?x6779)) $x8922 $x6609 $x6861 $x8019 (= ?x6860 (f_MLOAD x_0 x_1 x_MLOAD_0 ?x6851)) (= ?x6978 (+ 3 (used_gas_s x_0 x_1 x_MLOAD_0 1))) $x9488 $x6866 $x6868 $x6023 $x6877 (= ?x7073 (+ 3 ?x6978)) $x8760 $x6880 $x6884 $x6892 $x6896 (= ?x7148 (+ 3 ?x7073)) $x7450 $x6902 $x6564 $x5482 $x6903 $x7425 $x6542 $x6911 $x6915 (= (used_gas_t x_0 x_1 x_MLOAD_0 1) (+ 2 ?x6844)) $x7401 $x6922 $x6917 $x7803 $x6927 $x7544 $x6934 $x6928 $x7383 $x73 $x6937 $x58 $x7008 $x6800 (not (and $x7380 $x6501 $x7408 $x6788))))))))))))))))))))))))))))))))))))))))))))))))))))))))))))))))))))))))))))))))))))))))
 )
(check-sat)
(get-proof)
